NAME : amz2838.152730_91230.tour
COMMENT : Cost = 152730_91230
COMMENT : Found by LKH-AMZ [Keld Helsgaun] Sun May 11 15:22:40 2025
COMMENT : TW viol.: 0 #: 0
TYPE : TOUR
DIMENSION : 96
TOUR_SECTION
7
25
17
16
50
29
94
10
69
31
2
67
93
39
32
65
44
56
21
30
60
19
47
20
1
51
64
89
27
91
36
26
63
86
92
48
58
9
45
40
77
68
41
3
4
23
76
18
22
81
54
82
14
57
59
52
83
66
53
84
73
90
55
49
33
12
85
11
87
13
75
6
78
72
62
70
28
43
96
34
61
46
80
5
35
74
88
79
24
95
71
38
15
42
37
8
-1
EOF
